benchmarks/VRPTW/TSPTW/solution/n200w40.002.txt.solution
1 78 174 84 86 44 66 129 26 39 2 57 175 92 16 149 69 41 199 35 185 103 152 141 62 5 196 162 109 36 83 21 68 111 120 168 121 197 172 146 40 200 130 54 22 13 159 148 45 51 55 94 125 15 119 8 65 67 187 105 11 112 32 93 179 29 101 147 6 100 131 49 124 71 10 80 24 70 126 87 177 18 188 160 117 37 139 191 61 43 110 195 116 132 77 27 167 115 161 140 95 165 107 72 30 123 176 91 154 82 118 138 90 85 64 53 3 81 73 58 151 20 144 33 114 181 193 153 7 75 98 133 128 183 143 19 127 170 79 106 96 158 97 50 89 42 59 74 134 76 4 56 169 88 47 12 17 136 190 38 198 34 182 135 156 31 104 46 166 173 63 157 180 9 60 163 189 102 113 155 23 108 25 171 186 122 145 184 14 137 194 192 164 48 52 99 28 178 201 150 142 
948
